Traveling Salesman Problem/TSP_generados/Aleatorio1620396526_17.tsp
NAME: Aleatorio1620396526_17.tsp
COMMENT: Randomly generated scenario
TYPE: TSP
DIMENSION: 17
EDGE_WEIGHT_TYPE: ATT
NODE_COORD_SECTION
1 38.47 31.23
2 47.22 1.44
3 10.45 24.88
4 37.67 45.09
5 12.33 41.15
6 8.12 19.1
7 11.01 43.53
8 17.15 45.3
9 42.32 19.26
10 20.53 30.84
11 11.52 15.4
12 22.61 17.66
13 46.76 45.48
14 9.78 4.93
15 37.19 10.98
16 6.38 44.92
17 23.5 37.66
