Traveling Salesman Problem/TSP_generados/Aleatorio1620396526_17.opt.tour
NAME: Aleatorio1620396526_17.opt.tour
COMMENT: Optimal solution for Aleatorio1620396526_17 (195.5494303498906)
TYPE: TOUR
DIMENSION: 17
TOUR_SECTION
1 13 4 17 8 7 16 5 10 3 6 11 14 12 15 2 9
-1
EOF
